Problem:    
Rows:       260
Columns:    89 (72 integer, 72 binary)
Non-zeros:  974
Status:     INTEGER OPTIMAL
Objective:  value = 41.522283 (MINimum)

   No.   Row name        Activity     Lower bound   Upper bound
------ ------------    ------------- ------------- -------------
     1 r.5                   41.5223             0               
     2 r.6                   24.6081      -982.859               
     3 r.7                   1041.52             0               
     4 r.8                  -982.046      -982.892               
     5 r.9                   1041.52             0               
     6 r.10                 -975.656      -982.841               
     7 r.11                  41.5223             0               
     8 r.12                   24.344      -982.308               
     9 r.13                  1041.52             0               
    10 r.14                  -993.08      -999.556               
    11 r.15                  41.5223             0               
    12 r.16                  24.9599      -995.109               
    13 r.17                  1041.52             0               
    14 r.18                 -993.524      -999.345               
    15 r.19                  41.5223             0               
    16 r.20                   24.344      -992.677               
    17 r.21                  41.5223             0               
    18 r.22                   27.558      -991.717               
    19 r.23                  1041.52             0               
    20 r.24                 -972.442      -991.012               
    21 r.25                  1041.52             0               
    22 r.26                 -999.682      -999.682               
    23 r.27                  41.5223             0               
    24 r.28                 -998.714      -998.714               
    25 r.29                  1041.52             0               
    26 r.30                 -958.478      -982.822               
    27 r.31                  41.5223             0               
    28 r.32                  41.5223      -987.819               
    29 r.33                  41.5223             0               
    30 r.34                  41.5223       -975.45               
    31 r.35                  1041.52             0               
    32 r.36                 -958.478      -986.036               
    33 r.37                        1             1             = 
    34 r.38                        1             1             = 
    35 r.39                        1             1             = 
    36 r.40                        1             1             = 
    37 r.41                        1             1             = 
    38 r.42                        1             1             = 
    39 r.43                        1             1             = 
    40 r.44                        1             1             = 
    41 r.45                     1001             2               
    42 r.46                    -1001         -1001               
    43 r.47                     2000      -982.841               
    44 r.48                     1001             2               
    45 r.49                    -1001         -1001               
    46 r.50                  2005.77      -982.308               
    47 r.51                     1001             2               
    48 r.52                    -1001         -1001               
    49 r.53                  1982.58      -999.556               
    50 r.54                     1001             2               
    51 r.55                    -1001         -1001               
    52 r.56                  2006.39      -995.109               
    53 r.57                     1001             2               
    54 r.58                    -1001         -1001               
    55 r.59                  1982.13      -999.345               
    56 r.60                     1001             2               
    57 r.61                    -1001         -1001               
    58 r.62                  2005.77      -992.677               
    59 r.63                     1000             2               
    60 r.64                    -1000         -1001               
    61 r.65                  2003.21      -991.717               
    62 r.66                        2             2               
    63 r.67                       -2         -1001               
    64 r.68                 -991.012      -991.012               
    65 r.69                  23.7613      -982.859               
    66 r.70                 -982.892      -982.892               
    67 r.71                  1024.55      -982.859               
    68 r.72                  17.9004      -982.892               
    69 r.73                 -982.822      -982.822               
    70 r.74                  17.1783      -987.819               
    71 r.75                 -977.048      -982.822               
    72 r.76                   22.952      -987.819               
    73 r.77                  17.1783       -975.45               
    74 r.78                 -982.822      -986.036               
    75 r.79                   22.952       -975.45               
    76 r.80                 -977.048      -986.036               
    77 r.81                     1001             2               
    78 r.82                    -1001         -1001               
    79 r.83                  2000.26       17.1408               
    80 r.84                     1001             2               
    81 r.85                    -1001         -1001               
    82 r.86                  1993.61       17.1076               
    83 r.87                        2             2               
    84 r.88                       -2         -1001               
    85 r.89                 -17.4235      -999.556               
    86 r.90                     1000             2               
    87 r.91                    -1000         -1001               
    88 r.92                  2000.62      -995.109               
    89 r.93                        2             2               
    90 r.94                       -2         -1001               
    91 r.95                 -17.8678      -999.345               
    92 r.96                     1000             2               
    93 r.97                    -1000         -1001               
    94 r.98                     2000      -992.677               
    95 r.99                     1001             2               
    96 r.100                   -1001         -1001               
    97 r.101                 2003.21      -991.717               
    98 r.102                    1001             2               
    99 r.103                   -1001         -1001               
   100 r.104                 2003.21      -991.012               
   101 r.105                -976.503      -982.841               
   102 r.106                 23.4972      -982.308               
   103 r.107                 24.2899      -982.841               
   104 r.108                 1024.29      -982.308               
   105 r.109                -982.822      -982.822               
   106 r.110                 17.1783      -987.819               
   107 r.111                -982.822      -982.822               
   108 r.112                 17.1783      -987.819               
   109 r.113                    1001             2               
   110 r.114                   -1001         -1001               
   111 r.115                 2017.18       -975.45               
   112 r.116                    1001             2               
   113 r.117                   -1001         -1001               
   114 r.118                 2017.18      -986.036               
   115 r.119                    1001             2               
   116 r.120                   -1001         -1001               
   117 r.121                 2017.42       17.1408               
   118 r.122                    1001             2               
   119 r.123                   -1001         -1001               
   120 r.124                 1993.61       17.1076               
   121 r.125                       2             2               
   122 r.126                      -2         -1001               
   123 r.127                 17.1593       17.1593               
   124 r.128                    1000             2               
   125 r.129                   -1000         -1001               
   126 r.130                    2000       17.6923               
   127 r.131                       2             2               
   128 r.132                      -2         -1001               
   129 r.133               -0.708508      -999.345               
   130 r.134                    1000             2               
   131 r.135                   -1000         -1001               
   132 r.136                    2000      -992.677               
   133 r.137                    1001             2               
   134 r.138                   -1001         -1001               
   135 r.139                 2020.37      -991.717               
   136 r.140                    1001             2               
   137 r.141                   -1001         -1001               
   138 r.142                 2003.21      -991.012               
   139 r.143                -993.926      -999.556               
   140 r.144                 24.1131      -995.109               
   141 r.145                 6.86646      -999.556               
   142 r.146                 1024.91      -995.109               
   143 r.147                -965.662      -982.822               
   144 r.148                 34.3376      -987.819               
   145 r.149                -982.822      -982.822               
   146 r.150                 17.1783      -987.819               
   147 r.151                 34.3376       -975.45               
   148 r.152                -965.662      -986.036               
   149 r.153                 17.1783       -975.45               
   150 r.154                -982.822      -986.036               
   151 r.155                    1001             2               
   152 r.156                   -1001         -1001               
   153 r.157                 2018.13       17.1408               
   154 r.158                    1001             2               
   155 r.159                   -1001         -1001               
   156 r.160                 1993.61       17.1076               
   157 r.161                       2             2               
   158 r.162                      -2         -1001               
   159 r.163                 17.8678       17.1593               
   160 r.164                    1000             2               
   161 r.165                   -1000         -1001               
   162 r.166                    2000       17.6923               
   163 r.167                       2             2               
   164 r.168                      -2         -1001               
   165 r.169                0.444356      0.444356               
   166 r.170                    1000             2               
   167 r.171                   -1000         -1001               
   168 r.172                 2000.62        4.8906               
   169 r.173                    1001             2               
   170 r.174                   -1001         -1001               
   171 r.175                 2021.08      -991.717               
   172 r.176                    1001             2               
   173 r.177                   -1001         -1001               
   174 r.178                 2003.21      -991.012               
   175 r.179                -994.371      -999.345               
   176 r.180                 23.4972      -992.677               
   177 r.181                  6.4221      -999.345               
   178 r.182                 1024.29      -992.677               
   179 r.183                -964.954      -982.822               
   180 r.184                 35.0461      -987.819               
   181 r.185                -982.822      -982.822               
   182 r.186                 17.1783      -987.819               
   183 r.187                    1001             2               
   184 r.188                   -1001         -1001               
   185 r.189                 2035.05       -975.45               
   186 r.190                    1001             2               
   187 r.191                   -1001         -1001               
   188 r.192                 2017.18      -986.036               
   189 r.193                    1000             2               
   190 r.194                   -1000         -1001               
   191 r.195                 1997.05       17.1408               
   192 r.196                       2             2               
   193 r.197                      -2         -1001               
   194 r.198                 990.396       17.1076               
   195 r.199                    1001             2               
   196 r.200                   -1001         -1001               
   197 r.201                 1996.79       17.1593               
   198 r.202                    1001             2               
   199 r.203                   -1001         -1001               
   200 r.204                 1996.79       17.6923               
   201 r.205                    1001             2               
   202 r.206                   -1001         -1001               
   203 r.207                 1979.36      0.444356               
   204 r.208                    1001             2               
   205 r.209                   -1001         -1001               
   206 r.210                  1997.4        4.8906               
   207 r.211                    1001             2               
   208 r.212                   -1001         -1001               
   209 r.213                 1978.92        0.6555               
   210 r.214                    1001             2               
   211 r.215                   -1001         -1001               
   212 r.216                 1996.79         7.323               
   213 r.217                 26.7112      -991.717               
   214 r.218                -973.289      -991.012               
   215 r.219                  1027.5      -991.717               
   216 r.220                 27.5039      -991.012               
   217 r.221                    1001             2               
   218 r.222                   -1001         -1001               
   219 r.223                 2013.96      -982.822               
   220 r.224                    1001             2               
   221 r.225                   -1001         -1001               
   222 r.226                 2013.96      -987.819               
   223 r.227                 13.9643       -975.45               
   224 r.228                -986.036      -986.036               
   225 r.229                 13.9643       -975.45               
   226 r.230                -986.036      -986.036               
   227 r.231                -959.325      -982.822               
   228 r.232                 40.6755      -987.819               
   229 r.233                 41.4682      -982.822               
   230 r.234                 1041.47      -987.819               
   231 r.235                    1001             2               
   232 r.236                   -1001         -1001               
   233 r.237                 1986.04        8.2834               
   234 r.238                    1001             2               
   235 r.239                   -1001         -1001               
   236 r.240                 1986.04        8.9877               
   237 r.241                    1001             2               
   238 r.242                   -1001         -1001               
   239 r.243                    2000       -975.45               
   240 r.244                    1001             2               
   241 r.245                   -1001         -1001               
   242 r.246                    2000      -986.036               
   243 r.247                    1001             2               
   244 r.248                   -1001         -1001               
   245 r.249                 1982.82       17.1593               
   246 r.250                    1001             2               
   247 r.251                   -1001         -1001               
   248 r.252                 1982.82       17.6923               
   249 r.253                    1001             2               
   250 r.254                   -1001         -1001               
   251 r.255                 1964.95        0.6555               
   252 r.256                    1001             2               
   253 r.257                   -1001         -1001               
   254 r.258                 1982.82         7.323               
   255 r.259                    1001             2               
   256 r.260                   -1001         -1001               
   257 r.261                    2000       17.1783               
   258 r.262                    1001             2               
   259 r.263                   -1001         -1001               
   260 r.264                    2000       12.1813               

   No. Column name       Activity     Lower bound   Upper bound
------ ------------    ------------- ------------- -------------
     1 tt                    41.5223             0               
     2 s_1_1        *              0             0             1 
     3 t_1_1                 17.1783             0               
     4 s_1_8        *              0             0             1 
     5 s_1_7        *              1             0             1 
     6 s_2_1        *              1             0             1 
     7 t_2_1                  22.952             0               
     8 s_2_8        *              1             0             1 
     9 s_2_7        *              0             0             1 
    10 s_1_2        *              1             0             1 
    11 t_1_2                 17.1783             0               
    12 s_2_2        *              0             0             1 
    13 t_2_2                 17.1783             0               
    14 s_1_3        *              1             0             1 
    15 t_1_3                 34.3376             0               
    16 s_2_3        *              0             0             1 
    17 t_2_3                 17.1783             0               
    18 s_1_4        *              1             0             1 
    19 t_1_4                 35.0461             0               
    20 s_2_4        *              0             0             1 
    21 t_2_4                 17.1783             0               
    22 s_1_5        *              0             0             1 
    23 t_1_5                 13.9643             0               
    24 s_2_5        *              1             0             1 
    25 t_2_5                 13.9643             0               
    26 s_1_6        *              1             0             1 
    27 t_1_6                 40.6755             0               
    28 s_2_6        *              0             0             1 
    29 t_2_6                 1041.47             0               
    30 t_1_7                       0             0               
    31 t_2_7                       0             0               
    32 t_1_8                       0             0               
    33 t_2_8                       0             0               
    34 r_1_1_2      *              1             0             1 
    35 u_1_1_2      *              0             0             1 
    36 r_2_1_2      *              1             0             1 
    37 u_2_1_2      *              0             0             1 
    38 r_1_1_3      *              1             0             1 
    39 u_1_1_3      *              0             0             1 
    40 r_2_1_3      *              1             0             1 
    41 u_2_1_3      *              0             0             1 
    42 r_1_1_4      *              1             0             1 
    43 u_1_1_4      *              0             0             1 
    44 r_2_1_4      *              1             0             1 
    45 u_2_1_4      *              0             0             1 
    46 r_1_1_5      *              1             0             1 
    47 u_1_1_5      *              0             0             1 
    48 r_2_1_5      *              0             0             1 
    49 u_2_1_5      *              1             0             1 
    50 r_1_2_3      *              0             0             1 
    51 u_1_2_3      *              0             0             1 
    52 r_2_2_3      *              1             0             1 
    53 u_2_2_3      *              0             0             1 
    54 r_1_2_4      *              0             0             1 
    55 u_1_2_4      *              0             0             1 
    56 r_2_2_4      *              1             0             1 
    57 u_2_2_4      *              0             0             1 
    58 r_1_2_5      *              1             0             1 
    59 u_1_2_5      *              0             0             1 
    60 r_2_2_5      *              1             0             1 
    61 u_2_2_5      *              0             0             1 
    62 r_1_2_8      *              1             0             1 
    63 u_1_2_8      *              0             0             1 
    64 r_2_2_8      *              1             0             1 
    65 u_2_2_8      *              0             0             1 
    66 r_1_3_4      *              0             0             1 
    67 u_1_3_4      *              0             0             1 
    68 r_2_3_4      *              1             0             1 
    69 u_2_3_4      *              0             0             1 
    70 r_1_3_5      *              1             0             1 
    71 u_1_3_5      *              0             0             1 
    72 r_2_3_5      *              1             0             1 
    73 u_2_3_5      *              0             0             1 
    74 r_1_4_5      *              1             0             1 
    75 u_1_4_5      *              0             0             1 
    76 r_2_4_5      *              1             0             1 
    77 u_2_4_5      *              0             0             1 
    78 r_1_4_8      *              1             0             1 
    79 u_1_4_8      *              0             0             1 
    80 r_2_4_8      *              1             0             1 
    81 u_2_4_8      *              0             0             1 
    82 r_1_5_7      *              1             0             1 
    83 u_1_5_7      *              0             0             1 
    84 r_2_5_7      *              1             0             1 
    85 u_2_5_7      *              0             0             1 
    86 r_1_7_8      *              1             0             1 
    87 u_1_7_8      *              0             0             1 
    88 r_2_7_8      *              1             0             1 
    89 u_2_7_8      *              0             0             1 

Integer feasibility conditions:

KKT.PE: max.abs.err = 2.27e-13 on row 10
        max.rel.err = 1.10e-16 on row 139
        High quality

KKT.PB: max.abs.err = 2.27e-13 on row 22
        max.rel.err = 6.15e-16 on row 165
        High quality

End of output
